8,1,10,1,10,2,5,3,9,5,9,7,9,9,9,10,6,10;4,1,5,2,7,4,7,5,4,4,1,8,6,8,6,9,10,10;6,1,8,2,9,2,10,3,7,6,3,6,6,6,6,7,4,9,5,10;1,2,6,2,9,3,9,4,10,4,2,6,10,6,2,7,3,10;9,1,1,4,6,4,8,6,3,8,4,7,5,6,7,9,2,8,7,10;1,1,1,3,3,2,2,4,1,5,8,5,9,6,5,5,5,8,1,10;7,1,7,2,7,3,3,4,5,4,10,5,9,8,4,6,4,8,10,8,2,10;2,2,2,3,3,3,4,3,1,6,7,7,4,5,10,7,3,9,4,10;5,1,8,3,6,3,3,5,1,7,7,8,5,7,1,9,5,9,10,9;2,1,3,1,4,2,8,4,2,5,6,5,3,7,8,7,8,8,8,9,2,9,8,10;
